words_hard_train/2190.qaiger
aag 74 16 0 1 58
2
4
8
10
18
20
24
26
36
38
50
52
64
66
90
98
148
6 2 4
12 9 11
14 8 10
16 13 15
22 19 21
28 25 27
30 23 29
32 18 20
34 30 33
40 36 38
42 24 26
44 41 43
46 34 45
48 47 33
54 50 52
56 49 55
58 51 53
60 56 59
62 61 55
68 65 67
70 64 66
72 69 71
74 63 72
76 75 71
78 16 77
80 79 15
82 7 81
84 3 5
86 82 85
88 87 7
92 88 91
94 89 90
96 93 95
100 97 98
102 48 52
104 103 50
106 104 61
108 24 27
110 109 37
112 111 18
114 112 47
116 41 21
118 117 43
120 114 119
122 62 66
124 123 64
126 124 75
128 121 127
130 107 128
132 80 4
134 133 2
136 134 87
138 130 137
140 79 8
142 76 10
144 140 143
146 138 145
148 101 147
i0 2 y1[6]
i1 1 x2[6]
i2 2 y1[5]
i3 1 x2[5]
i4 2 y1[2]
i5 1 x2[2]
i6 2 y1[1]
i7 1 x2[1]
i8 2 y1[0]
i9 1 x2[0]
i10 2 y1[3]
i11 1 x2[3]
i12 2 y1[4]
i13 1 x2[4]
i14 1 x2[7]
i15 2 y1[7]
o0 bv[0]
c
simplified
  >
    and
      2 y1
      add
        2 y1
        1 x2
    << 2
      1
