words_hard_train/2190.qaiger.qdimacs
p cnf 74 175
a 33 2 5 10 13 45 19 26 0
e 1 3 4 6 7 8 9 11 12 14 15 16 17 18 20 21 22 23 24 25 27 28 29 30 31 32 34 35 36 37 38 39 40 41 42 43 44 46 47 48 49 50 51 52 53 54 55 56 57 58 59 60 61 62 63 64 65 66 67 68 69 70 71 72 73 74 0
-1 -2 3 0
1 -3 0
2 -3 0
4 5 6 0
-4 -6 0
-5 -6 0
-4 -5 7 0
4 -7 0
5 -7 0
6 7 8 0
-6 -8 0
-7 -8 0
9 10 11 0
-9 -11 0
-10 -11 0
12 13 14 0
-12 -14 0
-13 -14 0
11 14 15 0
-11 -15 0
-14 -15 0
-9 -10 16 0
9 -16 0
10 -16 0
-15 16 17 0
15 -17 0
-16 -17 0
-18 -19 20 0
18 -20 0
19 -20 0
-12 -13 21 0
12 -21 0
13 -21 0
20 21 22 0
-20 -22 0
-21 -22 0
-17 22 23 0
17 -23 0
-22 -23 0
23 16 24 0
-23 -24 0
-16 -24 0
-25 -26 27 0
25 -27 0
26 -27 0
24 27 28 0
-24 -28 0
-27 -28 0
25 26 29 0
-25 -29 0
-26 -29 0
-28 29 30 0
28 -30 0
-29 -30 0
30 27 31 0
-30 -31 0
-27 -31 0
32 33 34 0
-32 -34 0
-33 -34 0
-32 -33 35 0
32 -35 0
33 -35 0
34 35 36 0
-34 -36 0
-35 -36 0
31 -36 37 0
-31 -37 0
36 -37 0
37 35 38 0
-37 -38 0
-35 -38 0
-8 38 39 0
8 -39 0
-38 -39 0
39 7 40 0
-39 -40 0
-7 -40 0
3 40 41 0
-3 -41 0
-40 -41 0
1 2 42 0
-1 -42 0
-2 -42 0
-41 42 43 0
41 -43 0
-42 -43 0
43 3 44 0
-43 -44 0
-3 -44 0
-44 45 46 0
44 -46 0
-45 -46 0
44 -45 47 0
-44 -47 0
45 -47 0
46 47 48 0
-46 -48 0
-47 -48 0
48 -49 50 0
-48 -50 0
49 -50 0
-24 -26 51 0
24 -51 0
26 -51 0
51 -25 52 0
-51 -52 0
25 -52 0
-52 30 53 0
52 -53 0
-30 -53 0
-12 13 54 0
12 -54 0
-13 -54 0
54 18 55 0
-54 -55 0
-18 -55 0
55 -9 56 0
-55 -56 0
9 -56 0
-56 23 57 0
56 -57 0
-23 -57 0
20 10 58 0
-20 -58 0
-10 -58 0
58 21 59 0
-58 -59 0
-21 -59 0
-57 59 60 0
57 -60 0
-59 -60 0
-31 -33 61 0
31 -61 0
33 -61 0
61 -32 62 0
-61 -62 0
32 -62 0
-62 37 63 0
62 -63 0
-37 -63 0
60 63 64 0
-60 -64 0
-63 -64 0
53 -64 65 0
-53 -65 0
64 -65 0
-40 -2 66 0
40 -66 0
2 -66 0
66 -1 67 0
-66 -67 0
1 -67 0
-67 43 68 0
67 -68 0
-43 -68 0
-65 68 69 0
65 -69 0
-68 -69 0
39 -4 70 0
-39 -70 0
4 -70 0
-38 -5 71 0
38 -71 0
5 -71 0
-70 71 72 0
70 -72 0
-71 -72 0
-69 72 73 0
69 -73 0
-72 -73 0
50 73 74 0
-50 -74 0
-73 -74 0
74 0
